DATASET = "thpack7";
INSTANCE = "081";

WIDTH = 233;
HEIGHT = 220;
LENGTH = 587;

NO_OF_SHAPES = 20;
size = [|
  110,60,55 |
  80,78,71 |
  110,75,50 |
  100,72,40 |
  103,60,32 |
  70,60,49 |
  80,72,62 |
  120,74,67 |
  75,52,37 |
  57,54,48 |
  62,55,53 |
  83,73,36 |
  75,64,40 |
  98,80,31 |
  112,100,52 |
  56,49,44 |
  74,28,26 |
  68,67,52 |
  116,96,27 |
  92,65,45 |
|];

verticality = [|
  0,1,1 |
  1,1,1 |
  0,1,1 |
  0,1,1 |
  0,1,1 |
  1,1,1 |
  1,1,1 |
  1,1,1 |
  0,1,1 |
  1,1,1 |
  1,1,1 |
  0,0,1 |
  1,1,1 |
  0,0,1 |
  0,1,1 |
  1,1,1 |
  0,1,1 |
  1,1,1 |
  0,0,1 |
  0,1,1 |
|];

box_count = [
  2,
  6,
  1,
  4,
  5,
  7,
  6,
  8,
  5,
  6,
  5,
  6,
  7,
  6,
  3,
  6,
  4,
  5,
  10,
  8,
];
